(declare-fun e () String)
(declare-fun c () String)
(declare-fun g () String)
(declare-fun d () String)
(declare-fun f () String)
(declare-fun a () String)
(declare-fun h () String)
(assert (= a (str.++ e "hdc")))
(assert (= "agh" (str.++ f c)))
(assert (= (str.++ a h c h "hf") (str.++ d "d" f "e" g)))

(check-sat)
